Tried aggregator 1 time.
MIQCP Presolve eliminated 10076 rows and 1496 columns.
MIQCP Presolve modified 29 coefficients.
Reduced MIQCP has 25703 rows, 25390 columns, and 85056 nonzeros.
Reduced MIQCP has 313 binaries, 51 generals, 0 SOSs, and 0 indicators.
Reduced MIQCP has 4907 quadratic constraints.
Presolve time = 1.70 sec. (83.46 ticks)
Probing fixed 0 vars, tightened 16385 bounds.
Probing changed sense of 6 constraints.
Probing time = 0.64 sec. (151.80 ticks)
Cover probing fixed 0 vars, tightened 1539 bounds.
Clique table members: 3493.
MIP emphasis: balance optimality and feasibility.
MIP search method: dynamic search.
Parallel mode: deterministic, using up to 16 threads.
Root relaxation solution time = 6.53 sec. (5768.73 ticks)

        Nodes                                         Cuts/
   Node  Left     Objective  IInf  Best Integer    Best Bound    ItCnt     Gap

      0     0        7.7000     0                      0.0000    21300         
      0     0        7.7000   214                      7.7000    21300         
      0     2        7.7000   127                      7.7000    21328         
Elapsed time = 22.27 sec. (13057.63 ticks, tree = 0.01 MB, solutions = 0)
      1     3        7.7000   114                      7.7000    21336         
      2     4       23.1000   100                      7.7000    21653         
      3     3        7.7000   113                      7.7000    22399         
      6     5       23.1000    91                      7.7000    23733         
      7     5    infeasible                            7.7000    27337         
      8     7       23.1000    51                      7.7000    26854         
     10     4    infeasible                            7.7000    24739         
     12     5       23.1000   155                      7.7000    23924         
     13     5       63.2500   122                      7.7000    35690         
     24     7        7.7000   183                      7.7000    39886         
Elapsed time = 32.78 sec. (21238.98 ticks, tree = 0.01 MB, solutions = 0)
     30     8        7.7000   258                      7.7000    44253         
     44    12    infeasible                            7.7000    55587         
     61    10    infeasible                            7.7000    60006         
     73     9    infeasible                            7.7000    65642         
     85    13        7.7000   203                      7.7000    66839         
    100    10     1547.7000   133                      7.7000    86276         
    115     6    infeasible                            7.7000    91778         
    133    11       30.8300   166                      7.7000    97461         
    158     8       27.1300   160                      7.7000   104706         
    170     7        7.7000   179                      7.7000   108322         
Elapsed time = 71.67 sec. (31677.46 ticks, tree = 0.01 MB, solutions = 0)
    173     6    infeasible                            7.7000   111475         
    176     7       15.4000   129                      7.7000   116532         
    182     5    infeasible                            7.7000   120629         
    191     5    infeasible                            7.7000   121362         
*   192     5      integral     0      777.8400        7.7000    28123   99.01%
    193    12   1.67228e+09     0      777.8400        7.7000    73215   99.01%

Implied bound cuts applied:  20
Zero-half cuts applied:  2
Cone linearizations applied:  16

Root node processing (before b&c):
  Real time             =   21.42 sec. (12801.61 ticks)
Parallel b&c, 16 threads:
  Real time             =  748.39 sec. (206624.80 ticks)
  Sync time (average)   =  137.11 sec.
  Wait time (average)   =    0.11 sec.
                          ------------
Total (root+branch&cut) =  769.81 sec. (219426.42 ticks)
